42 3
1 52 73
27 38 20
97 51 53
26 11 81
90 45 25
25 19 33
11 80 53
84 73 8
54 13 86
46 47 45
24 2 3
99 91 78
57 77 62
35 38 27
35 64 37
6 53 16
45 33 20
7 98 55
9 99 43
70 19 54
99 19 68
40 44 74
18 81 80
10 3 14
64 38 25
51 52 11
98 35 77
27 66 91
47 44 92
47 97 32
79 86 74
56 82 53
31 35 31
45 57 65
7 49 46
1 70 39
45 93 13
43 29 41
25 37 71
93 2 48
82 53 13
40 13 81
